NAME: random-9-22112
TYPE: TSP
COMMENT: size=9 seed=22112
DIMENSION: 20
EDGE_WEIGHT_TYPE: EUC_2D
NODE_COORD_SECTION
+0 384 412
-0 384 412
+1 500 337
-1 48 219
+2 436 859
-2 367 685
+3 126 396
-3 790 672
+4 144 658
-4 814 278
+5 479 233
-5 527 853
+6 350 299
-6 737 163
+7 286 432
-7 401 621
+8 803 201
-8 148 617
+9 412 613
-9 137 486
PRECEDENCE_SECTION
+0 -0
+1 -1
+2 -2
+3 -3
+4 -4
+5 -5
+6 -6
+7 -7
+8 -8
+9 -9
EOF
